
Gurobi 9.1.1 (linux64) logging started Mon Nov 29 07:48:24 2021

Changed value of parameter LogFile to /home/aniket/python_scripts/Plasmids-Optimization/exp/2021-06-14__iterative_MILP_edge_novelty/output/sample_17/1.1.1/nplasmids_1/MILP/m.log
   Prev:   Default: 
Changed value of parameter TimeLimit to 240.0
   Prev: inf  Min: 0.0  Max: inf  Default: inf
Changed value of parameter MIPGap to 0.05
   Prev: 0.0001  Min: 0.0  Max: inf  Default: 0.0001
Gurobi Optimizer version 9.1.1 build v9.1.1rc0 (linux64)
Thread count: 2 physical cores, 4 logical processors, using up to 4 threads
Optimize a model with 3799 rows, 1275 columns and 8887 nonzeros
Model fingerprint: 0x213f8c6d
Variable types: 401 continuous, 874 integer (794 binary)
Coefficient statistics:
  Matrix range     [1e-02, 9e+05]
  Objective range  [1e-03, 1e+00]
  Bounds range     [1e+00, 1e+00]
  RHS range        [1e+00, 2e+05]
Presolve removed 3221 rows and 801 columns
Presolve time: 0.01s
Presolved: 578 rows, 474 columns, 2509 nonzeros
Variable types: 143 continuous, 331 integer (331 binary)
Found heuristic solution: objective -0.7627101

Root relaxation: objective -7.586395e+00, 224 iterations, 0.00 seconds

    Nodes    |    Current Node    |     Objective Bounds      |     Work
 Expl Unexpl |  Obj  Depth IntInf | Incumbent    BestBd   Gap | It/Node Time

     0     0   -7.58639    0    2   -0.76271   -7.58639   895%     -    0s
H    0     0                      -7.5854302   -7.58639  0.01%     -    0s

Explored 1 nodes (224 simplex iterations) in 0.02 seconds
Thread count was 4 (of 4 available processors)

Solution count 2: -7.58543 -0.76271 

Optimal solution found (tolerance 5.00e-02)
Best objective -7.585430238122e+00, best bound -7.586394746215e+00, gap 0.0127%

Gurobi 9.1.1 (linux64) logging started Mon Nov 29 07:48:24 2021

Changed value of parameter LogFile to /home/aniket/python_scripts/Plasmids-Optimization/exp/2021-06-14__iterative_MILP_edge_novelty/output/sample_17/1.1.1/nplasmids_1/MILP/m.log
   Prev:   Default: 
Changed value of parameter TimeLimit to 240.0
   Prev: inf  Min: 0.0  Max: inf  Default: inf
Changed value of parameter MIPGap to 0.05
   Prev: 0.0001  Min: 0.0  Max: inf  Default: 0.0001
Gurobi Optimizer version 9.1.1 build v9.1.1rc0 (linux64)
Thread count: 2 physical cores, 4 logical processors, using up to 4 threads
Optimize a model with 3424 rows, 1147 columns and 8078 nonzeros
Model fingerprint: 0x12a9f0d4
Variable types: 356 continuous, 791 integer (720 binary)
Coefficient statistics:
  Matrix range     [1e-02, 9e+05]
  Objective range  [1e-03, 1e+00]
  Bounds range     [1e+00, 1e+00]
  RHS range        [1e+00, 2e+05]
Presolve removed 1318 rows and 218 columns
Presolve time: 0.00s

Explored 0 nodes (0 simplex iterations) in 0.00 seconds
Thread count was 1 (of 4 available processors)

Solution count 0

Model is infeasible
Best objective -, best bound -, gap -

Computing Irreducible Inconsistent Subsystem (IIS)...

           Constraints          |            Bounds           |  Runtime
      Min       Max     Guess   |   Min       Max     Guess   |
--------------------------------------------------------------------------
        0      2835         -         0       427         -           0s
      144       144         -         0         0         -           0s

IIS computed: 144 constraints, 0 bounds
IIS runtime: 0.13 seconds
Warning: linear constraint 0 and linear constraint 1 have the same name "counted_length"
